c "random instance"
p edges 150 1050
e 1 6
e 1 27
e 1 60
e 1 67
e 1 79
e 1 86
e 1 107
e 1 114
e 1 125
e 1 127
e 1 129
e 1 136
e 1 141
e 1 150
e 2 16
e 2 20
e 2 70
e 2 78
e 2 96
e 2 106
e 2 111
e 2 121
e 2 123
e 2 129
e 2 143
e 2 146
e 3 16
e 3 18
e 3 36
e 3 43
e 3 45
e 3 47
e 3 51
e 3 71
e 3 73
e 3 83
e 3 96
e 3 114
e 4 30
e 4 35
e 4 36
e 4 47
e 4 50
e 4 55
e 4 59
e 4 76
e 4 94
e 4 105
e 4 119
e 4 148
e 5 6
e 5 16
e 5 24
e 5 25
e 5 38
e 5 41
e 5 45
e 5 97
e 5 119
e 5 122
e 5 124
e 6 7
e 6 24
e 6 27
e 6 38
e 6 44
e 6 61
e 6 74
e 6 87
e 6 118
e 6 131
e 6 143
e 7 15
e 7 21
e 7 42
e 7 45
e 7 64
e 7 70
e 7 72
e 7 75
e 7 76
e 7 81
e 7 82
e 7 90
e 7 93
e 7 95
e 7 98
e 7 101
e 7 102
e 7 106
e 7 119
e 7 124
e 7 142
e 7 143
e 7 144
e 8 19
e 8 22
e 8 23
e 8 31
e 8 56
e 8 58
e 8 59
e 8 63
e 8 67
e 8 73
e 8 78
e 8 89
e 8 90
e 8 113
e 8 127
e 8 142
e 9 24
e 9 32
e 9 33
e 9 34
e 9 36
e 9 62
e 9 68
e 9 72
e 9 73
e 9 87
e 9 90
e 9 92
e 9 97
e 9 104
e 9 108
e 9 111
e 9 112
e 9 116
e 9 142
e 9 145
e 10 16
e 10 18
e 10 33
e 10 40
e 10 60
e 10 62
e 10 69
e 10 101
e 10 123
e 10 125
e 10 126
e 10 136
e 10 141
e 10 144
e 11 35
e 11 39
e 11 71
e 11 77
e 11 92
e 11 93
e 11 113
e 11 128
e 11 150
e 12 21
e 12 22
e 12 25
e 12 49
e 12 59
e 12 68
e 12 73
e 12 78
e 12 99
e 12 102
e 12 114
e 12 116
e 12 127
e 12 142
e 12 143
e 13 29
e 13 53
e 13 76
e 13 78
e 13 85
e 13 92
e 13 120
e 13 135
e 13 146
e 13 150
e 14 21
e 14 29
e 14 31
e 14 69
e 14 102
e 14 107
e 14 110
e 14 116
e 14 127
e 14 129
e 14 130
e 14 146
e 14 148
e 15 19
e 15 29
e 15 42
e 15 63
e 15 84
e 15 87
e 15 89
e 15 99
e 15 102
e 15 103
e 15 138
e 16 27
e 16 32
e 16 34
e 16 35
e 16 39
e 16 50
e 16 57
e 16 89
e 16 100
e 16 105
e 16 106
e 16 113
e 16 114
e 16 116
e 16 117
e 16 150
e 17 55
e 17 57
e 17 71
e 17 83
e 17 84
e 17 94
e 17 110
e 17 117
e 17 118
e 17 119
e 17 147
e 18 26
e 18 31
e 18 41
e 18 49
e 18 53
e 18 55
e 18 68
e 18 69
e 18 87
e 18 114
e 18 124
e 18 131
e 18 132
e 18 134
e 19 23
e 19 26
e 19 28
e 19 38
e 19 42
e 19 58
e 19 81
e 19 85
e 19 87
e 19 110
e 19 116
e 19 121
e 19 136
e 19 142
e 19 149
e 20 31
e 20 36
e 20 43
e 20 53
e 20 68
e 20 72
e 20 88
e 20 91
e 20 98
e 20 112
e 20 125
e 20 139
e 20 147
e 20 150
e 21 32
e 21 40
e 21 46
e 21 49
e 21 60
e 21 61
e 21 64
e 21 71
e 21 75
e 21 111
e 21 113
e 21 117
e 21 119
e 21 120
e 21 129
e 22 34
e 22 39
e 22 43
e 22 44
e 22 60
e 22 61
e 22 67
e 22 72
e 22 78
e 22 94
e 22 108
e 22 114
e 22 128
e 22 143
e 23 28
e 23 56
e 23 58
e 23 71
e 23 84
e 23 90
e 23 106
e 23 112
e 23 116
e 23 147
e 24 33
e 24 35
e 24 57
e 24 60
e 24 80
e 24 93
e 24 105
e 24 106
e 24 112
e 24 121
e 24 123
e 24 126
e 24 136
e 24 145
e 24 148
e 25 35
e 25 56
e 25 57
e 25 73
e 25 76
e 25 143
e 26 37
e 26 46
e 26 52
e 26 67
e 26 68
e 26 73
e 26 74
e 26 90
e 26 94
e 26 95
e 26 104
e 26 109
e 26 120
e 26 121
e 26 125
e 26 126
e 26 137
e 27 44
e 27 48
e 27 55
e 27 57
e 27 82
e 27 116
e 28 37
e 28 55
e 28 56
e 28 58
e 28 76
e 28 109
e 28 114
e 28 116
e 28 135
e 28 146
e 29 48
e 29 54
e 29 55
e 29 63
e 29 68
e 29 78
e 29 80
e 29 84
e 29 85
e 29 89
e 29 94
e 29 103
e 29 116
e 29 119
e 29 121
e 29 133
e 29 138
e 29 141
e 29 145
e 30 34
e 30 42
e 30 50
e 30 79
e 30 88
e 30 93
e 30 98
e 30 124
e 31 40
e 31 60
e 31 83
e 31 113
e 31 115
e 31 121
e 31 130
e 31 131
e 31 133
e 31 140
e 32 62
e 32 83
e 32 94
e 32 116
e 32 118
e 32 138
e 32 145
e 33 34
e 33 45
e 33 46
e 33 53
e 33 59
e 33 63
e 33 64
e 33 66
e 33 79
e 33 98
e 33 108
e 33 111
e 33 120
e 33 122
e 34 37
e 34 41
e 34 53
e 34 67
e 34 69
e 34 103
e 34 111
e 34 126
e 34 135
e 35 43
e 35 50
e 35 58
e 35 76
e 35 83
e 35 94
e 35 146
e 35 149
e 36 57
e 36 62
e 36 85
e 36 87
e 36 95
e 36 128
e 36 138
e 36 144
e 37 44
e 37 61
e 37 67
e 37 91
e 37 95
e 37 116
e 37 131
e 37 133
e 37 136
e 37 144
e 38 47
e 38 84
e 38 95
e 38 106
e 38 111
e 38 112
e 38 123
e 39 42
e 39 50
e 39 57
e 39 59
e 39 60
e 39 78
e 39 106
e 39 109
e 39 132
e 39 145
e 40 54
e 40 56
e 40 58
e 40 60
e 40 69
e 40 76
e 40 89
e 40 98
e 40 105
e 40 107
e 40 108
e 40 109
e 40 110
e 40 126
e 40 132
e 40 138
e 40 143
e 41 46
e 41 47
e 41 53
e 41 60
e 41 65
e 41 75
e 41 85
e 41 100
e 41 149
e 41 150
e 42 48
e 42 66
e 42 110
e 42 118
e 42 134
e 43 53
e 43 72
e 43 73
e 43 87
e 43 101
e 43 105
e 44 77
e 44 88
e 44 99
e 44 102
e 44 109
e 44 124
e 44 143
e 45 46
e 45 56
e 45 58
e 45 62
e 45 67
e 45 68
e 45 74
e 45 79
e 45 85
e 45 89
e 45 96
e 45 106
e 45 112
e 45 117
e 45 125
e 45 134
e 45 138
e 45 147
e 46 49
e 46 60
e 46 93
e 46 112
e 46 124
e 46 140
e 47 49
e 47 54
e 47 60
e 47 61
e 47 74
e 47 81
e 47 91
e 47 107
e 47 116
e 47 120
e 47 127
e 47 128
e 47 129
e 47 130
e 47 132
e 47 133
e 47 142
e 47 144
e 47 149
e 48 73
e 48 76
e 48 83
e 48 88
e 48 132
e 48 135
e 49 56
e 49 63
e 49 71
e 49 82
e 49 91
e 49 93
e 49 122
e 49 124
e 49 134
e 49 144
e 50 51
e 50 53
e 50 54
e 50 71
e 50 80
e 50 101
e 50 104
e 50 115
e 50 116
e 50 117
e 50 125
e 50 136
e 50 147
e 51 65
e 51 79
e 51 92
e 51 95
e 51 113
e 51 116
e 51 122
e 51 135
e 51 147
e 52 63
e 52 74
e 52 80
e 52 85
e 52 105
e 52 117
e 52 127
e 52 134
e 52 147
e 53 74
e 53 75
e 53 86
e 53 116
e 53 137
e 54 69
e 54 74
e 54 77
e 54 82
e 54 92
e 54 93
e 54 116
e 54 141
e 54 144
e 55 77
e 55 85
e 55 89
e 55 90
e 55 98
e 55 122
e 55 146
e 56 68
e 56 78
e 56 84
e 56 89
e 56 94
e 56 95
e 56 105
e 56 109
e 56 115
e 56 116
e 56 126
e 56 138
e 57 83
e 57 106
e 57 116
e 57 129
e 57 131
e 57 133
e 57 143
e 58 89
e 58 92
e 59 92
e 59 103
e 59 105
e 59 135
e 59 143
e 60 67
e 60 69
e 60 93
e 60 109
e 60 111
e 60 112
e 60 150
e 61 62
e 61 65
e 61 78
e 61 79
e 61 95
e 61 105
e 61 124
e 61 125
e 61 128
e 61 131
e 61 137
e 62 63
e 62 92
e 62 95
e 62 99
e 62 102
e 62 115
e 62 120
e 62 127
e 62 134
e 62 143
e 62 150
e 63 66
e 63 68
e 63 85
e 63 90
e 63 99
e 63 112
e 63 118
e 63 120
e 63 149
e 64 66
e 64 72
e 64 83
e 64 88
e 64 90
e 64 101
e 65 67
e 65 70
e 65 97
e 65 100
e 65 139
e 65 142
e 66 83
e 66 105
e 66 109
e 66 136
e 66 139
e 66 149
e 67 72
e 67 74
e 67 80
e 67 82
e 67 84
e 67 94
e 67 104
e 67 106
e 67 121
e 67 124
e 67 145
e 68 79
e 68 89
e 68 93
e 68 99
e 68 104
e 68 106
e 68 119
e 68 147
e 69 79
e 69 82
e 69 105
e 69 127
e 69 129
e 69 131
e 69 133
e 69 149
e 70 85
e 70 95
e 70 105
e 70 111
e 70 117
e 70 128
e 70 142
e 70 144
e 70 149
e 71 72
e 71 84
e 71 104
e 71 119
e 71 124
e 71 142
e 71 148
e 72 82
e 72 91
e 72 99
e 72 121
e 72 127
e 72 136
e 72 141
e 73 106
e 73 108
e 73 114
e 73 115
e 73 134
e 73 137
e 74 80
e 74 106
e 74 109
e 74 116
e 74 121
e 74 132
e 75 79
e 75 80
e 75 88
e 75 94
e 75 105
e 75 107
e 75 108
e 75 112
e 75 115
e 75 116
e 75 119
e 75 126
e 75 128
e 75 141
e 76 78
e 76 99
e 76 101
e 76 104
e 76 106
e 76 107
e 76 134
e 76 147
e 77 81
e 77 91
e 77 108
e 77 124
e 77 126
e 78 80
e 78 91
e 78 94
e 78 110
e 78 118
e 79 91
e 79 97
e 79 104
e 79 108
e 79 121
e 79 123
e 80 89
e 80 95
e 80 126
e 80 127
e 80 131
e 80 139
e 81 100
e 81 102
e 81 103
e 81 108
e 81 119
e 81 124
e 81 136
e 81 150
e 82 88
e 82 90
e 82 111
e 82 144
e 83 99
e 83 106
e 83 126
e 83 140
e 83 141
e 83 150
e 84 95
e 84 96
e 84 102
e 84 121
e 84 133
e 84 134
e 84 138
e 84 139
e 85 97
e 85 118
e 85 130
e 85 136
e 85 138
e 86 94
e 86 95
e 86 104
e 86 106
e 86 108
e 86 130
e 86 135
e 86 137
e 86 143
e 87 92
e 87 99
e 87 100
e 87 104
e 87 108
e 87 133
e 87 143
e 88 96
e 88 137
e 89 98
e 89 101
e 89 105
e 89 113
e 89 131
e 89 139
e 89 146
e 90 104
e 90 106
e 90 111
e 90 116
e 90 126
e 90 139
e 90 145
e 91 105
e 91 111
e 91 112
e 91 113
e 91 115
e 91 134
e 91 146
e 92 93
e 92 99
e 92 100
e 92 108
e 92 138
e 92 141
e 93 94
e 93 95
e 93 96
e 93 97
e 93 99
e 93 103
e 93 114
e 93 119
e 94 102
e 94 127
e 94 128
e 94 142
e 95 102
e 95 107
e 95 110
e 95 115
e 95 136
e 95 139
e 96 97
e 96 106
e 96 110
e 96 114
e 96 133
e 96 141
e 96 148
e 97 139
e 97 144
e 98 100
e 98 101
e 98 107
e 98 117
e 98 119
e 98 131
e 99 103
e 99 108
e 99 116
e 99 127
e 99 140
e 99 144
e 100 111
e 100 112
e 100 113
e 100 121
e 100 129
e 100 134
e 100 138
e 100 150
e 101 106
e 101 113
e 101 116
e 101 118
e 101 122
e 101 150
e 102 109
e 102 110
e 102 122
e 102 125
e 102 149
e 103 106
e 103 143
e 103 146
e 104 116
e 104 142
e 105 121
e 105 124
e 105 128
e 106 109
e 106 122
e 106 125
e 106 136
e 106 140
e 106 145
e 107 123
e 107 149
e 108 111
e 108 113
e 108 115
e 108 121
e 108 126
e 108 129
e 108 131
e 108 140
e 109 127
e 110 116
e 110 123
e 110 128
e 112 117
e 112 122
e 112 124
e 112 133
e 112 134
e 113 116
e 113 128
e 113 132
e 113 140
e 113 142
e 114 117
e 114 129
e 114 146
e 115 125
e 115 136
e 115 141
e 116 122
e 116 137
e 116 146
e 117 119
e 117 120
e 117 136
e 117 138
e 117 143
e 117 147
e 118 134
e 118 138
e 118 140
e 118 150
e 119 134
e 119 140
e 119 141
e 120 121
e 120 134
e 120 138
e 120 147
e 120 149
e 122 126
e 122 140
e 122 146
e 123 145
e 123 146
e 125 134
e 125 139
e 126 132
e 126 138
e 127 134
e 127 135
e 127 144
e 129 148
e 130 138
e 130 143
e 130 147
e 131 133
e 132 133
e 132 139
e 132 150
e 133 145
e 134 138
e 134 149
e 137 147
e 138 143
e 139 140
e 141 142
e 144 147
e 145 147
e 145 148
e 145 150
